NAME : single
TYPE : ATSP
DIMENSION : 6
EDGE_WEIGHT_TYPE : EXPLICIT
EDGE_WEIGHT_FORMAT : FULL_MATRIX
EDGE_WEIGHT_SECTION
0 50144 50138 50128 766 168 
0 0 135 146 352 50000 
0 135 0 281 383 50000 
0 146 281 0 406 50000 
0 352 383 406 0 50000 
0 50000 50000 50000 50000 0 
EOF